(set-logic QF_S)
(declare-fun V10 () String )
(declare-fun V18 () String )
(declare-fun V7 () String )
(declare-fun V11 () String )
(declare-fun V25 () String )
(declare-fun V16 () String )
(declare-fun V19 () String )
(declare-fun V17 () String )
(declare-fun V6 () String )
(declare-fun V14 () String )
(declare-fun V21 () String )
(declare-fun V23 () String )
(declare-fun V8 () String )
(declare-fun V12 () String )
(declare-fun V26 () String )
(declare-fun V1 () String )
(declare-fun V15 () String )
(declare-fun V20 () String )
(declare-fun V22 () String )
(declare-fun V13 () String )
(assert (= (str.++ V6 V7 ) (str.++ (str.++ V10 V11 ) V12 ) ) )
(assert (= (str.++ V6 V7 ) (str.++ (str.++ V13 "X" ) V14 ) ) )
(assert (= (str.++ V6 V7 ) (str.++ (str.++ V25 "X" ) V26 ) ) )
(assert (= (str.++ (str.++ V6 V7 ) V18 ) (str.++ (str.++ V15 "/" ) V16 ) ) )
(assert (= (str.++ (str.++ V6 V7 ) V18 ) (str.++ (str.++ V22 "/" ) V23 ) ) )
(assert (= (str.++ (str.++ V6 V7 ) V18 ) (str.++ (str.++ (str.++ V8 V19 ) V20 ) V21 ) ) )
(assert (= (str.++ (str.++ (str.++ V1 V6 ) V7 ) V18 ) (str.++ "mongodb://" V17 ) ) )
( check-sat )
